#=======================================================
# FHI-aims file: ./geometry.in
# Created using the Atomic Simulation Environment (ASE)
# Sun May 10 02:18:47 2020
#=======================================================
lattice_vector 5.6854354000000003 -3.2824876800000000 19.4873745599999992 
lattice_vector 0.0000000000000000 6.5649753200000003 19.4873745599999992 
lattice_vector -5.6854354000000003 -3.2824876800000000 19.4873745599999992 
atom_frac 0.1330186653840627 0.1256866996341492 0.1183071672225945 Mg
    velocity 1.3901770286496331 1.0480268534283779 0.7226573122092200
atom_frac 0.3774895757570164 0.1148043577723881 0.1313097288831677 Mg
    velocity 0.7405962393147928 0.7262764691307562 -6.0518085722921606
atom_frac 0.6259684947433246 0.1245484530461879 0.1266549594902852 Mg
    velocity -7.7085712589781270 -5.3574896400406988 4.3355518278359675
atom_frac 0.8799859241373467 0.1246995453973314 0.1191742545607972 Mg
    velocity -1.1069705476168421 10.6606841173500602 3.2504043886213436
atom_frac 0.1182763651016520 0.3712393380424480 0.1345609316957019 Mg
    velocity -1.8165617363061126 -3.2195532685614507 -2.3474236724915958
atom_frac 0.3759606620173599 0.3760916992292276 0.1228985742920521 Mg
    velocity -5.4409158737005523 -6.0002891543764125 2.6256537065824026
atom_frac 0.6268569959781830 0.3824632236661956 0.1173686392742051 Mg
    velocity 0.4649601033260432 0.2259734203997938 -2.6356223870241715
atom_frac 0.8824723469469681 0.3763334573698600 0.1166085407148595 Mg
    velocity 1.6477655566320200 -2.4451806824336351 -1.6191097210485483
atom_frac 0.1174744934685719 0.6280353560471804 0.1320362624357840 Mg
    velocity 0.4884170169467621 3.6323784839514048 -2.6915646532476720
atom_frac 0.3740189422983938 0.6245348876168825 0.1234142504206359 Mg
    velocity -3.2015589004023397 -1.7784139516863164 6.0290737274664545
atom_frac 0.6355232103370623 0.6160580589713163 0.1198504430015936 Mg
    velocity -3.4096263263956512 -0.0052656882738944 0.5759786365220501
atom_frac 0.8750263665743351 0.6251911409593131 0.1253443426911044 Mg
    velocity -3.2655174637811211 -2.2402703742266228 1.5225508045649305
atom_frac 0.1248953027094089 0.8804751829388774 0.1196902395187754 Mg
    velocity 0.4586363008649365 -1.6932691816992445 3.0431918204073294
atom_frac 0.3744759203272063 0.8750369506750330 0.1221186706905678 Mg
    velocity -1.9644085396191695 3.5201184890664239 1.6311113866609170
atom_frac 0.6167283792666604 0.8791116256661738 0.1252060088447352 Mg
    velocity 0.6208951455006391 -3.4970898544673594 2.5782121475722271
atom_frac 0.8749679379630583 0.8890099010797003 0.1105673525258683 Mg
    velocity -2.1678802914964042 -0.6484108020912557 -3.1150702381961883
atom_frac 0.1195878968837660 0.1227042654119232 0.3843780381148482 Mg
    velocity 3.5145787266471631 -6.1635133688371333 -0.6133633939728969
atom_frac 0.3853119075466719 0.1200157141780835 0.3713612420093988 Mg
    velocity -1.8014373387590794 3.6353989175540398 -2.6537645083679573
atom_frac 0.6164271345966160 0.1351327985073910 0.3745378411671266 Mg
    velocity -1.9416637829950651 2.7393363306903415 1.2869672318221232
atom_frac 0.8824913257110221 0.1171526225456587 0.3731931355238803 Mg
    velocity -1.0271182170928319 -1.8343129431134206 2.8452827626288988
atom_frac 0.1234482889569958 0.3721059474994363 0.3760237728691463 Mg
    velocity 0.3376189701005530 1.1944803194103948 2.4017556200679611
atom_frac 0.3700440771032921 0.3916393771048545 0.3682145441174596 Mg
    velocity 5.6874693724941903 -3.1940858916445962 2.2203937512394236
atom_frac 0.6326529764107158 0.3733940381599296 0.3679738609875378 Mg
    velocity -3.7972927671826717 1.7181059684847781 1.1901853268639833
atom_frac 0.8740804486775627 0.3659136091748196 0.3862003561906597 Mg
    velocity 4.5645054222811670 -1.1204824334858801 -1.4810655499161340
atom_frac 0.1269659906805048 0.6266632294007985 0.3689097276801429 Mg
    velocity 7.5060138635327327 -3.0075096619823882 6.5836862609950542
atom_frac 0.3829761935511097 0.6259796877882443 0.3616876842135761 Mg
    velocity -2.8071815691708717 0.0654826185324966 5.7149948212461448
atom_frac 0.6285476600037512 0.6226297527812686 0.3796242850658167 Mg
    velocity -0.6399121454847507 0.9947333021367833 2.7487402582486844
atom_frac 0.8669063538813847 0.6220303697112093 0.3842315503072028 Mg
    velocity 2.2320441028068569 0.9450194215792357 -4.4992020200073677
atom_frac 0.1269112770641145 0.8727269777565942 0.3803043733137460 Mg
    velocity -1.6130420493303266 3.9253891862987897 3.7259457300992902
atom_frac 0.3826057916983810 0.8722481493567691 0.3707925683464576 Mg
    velocity 1.4037637677641883 -1.2738419620899615 -9.6686011271156929
atom_frac 0.6237397683899495 0.8714389548822585 0.3820695919087726 Mg
    velocity -0.6585484036733721 2.0124218971599697 1.8087260532233564
atom_frac 0.8693957849777951 0.8775552034859913 0.3798059526069736 Mg
    velocity 1.4686074506692397 1.4588755667392592 -7.8427365183011784
atom_frac 0.1266170529041013 0.1238231164906126 0.6224703167504241 Mg
    velocity 3.7838235732985983 -3.2920050106733059 5.4858584879870067
atom_frac 0.3776277104963542 0.1232425108814286 0.6238171733121125 Mg
    velocity 2.4221147021828573 -2.0257216707537911 -0.4069153119527054
atom_frac 0.6315545555426884 0.1151088051228993 0.6280975598002029 Mg
    velocity 1.7484376356419196 -1.4750097000308158 1.1242051358155616
atom_frac 0.8692943215863030 0.1237967309334905 0.6297477261270699 Mg
    velocity 0.6218900021503908 5.8136595336750601 2.9026497326697673
atom_frac 0.1289312292722829 0.3755407388761847 0.6273091235555355 Mg
    velocity 1.3490255112870029 3.2137590430325376 3.2962849077735319
atom_frac 0.3809041254382917 0.3733556303837487 0.6203106202210193 Mg
    velocity 1.8879015995489214 -2.8802794311762203 -3.6691083466199803
atom_frac 0.6216468186121259 0.3799927757823347 0.6249390805073086 Mg
    velocity -7.8978862205231151 0.4464727519070447 4.3232919472936775
atom_frac 0.8715641815102255 0.3675520723660199 0.6380094430347004 Mg
    velocity -2.7661582203912025 -0.1508999764171474 -3.5764456911017026
atom_frac 0.1279610267927840 0.6178391886023864 0.6319847599350971 Mg
    velocity 3.8943285932355685 -5.1569404013800408 3.4989385615910500
atom_frac 0.3676826296830643 0.6296207999716263 0.6233696583870486 Mg
    velocity 2.4586467663559386 1.6479209680564229 -2.4046881643185616
atom_frac 0.6199329468271234 0.6261313631797907 0.6300305084044421 Mg
    velocity -2.6248657568811726 -2.5370073302105518 -2.6995693000851664
atom_frac 0.8868607157960233 0.6230344009292665 0.6172622581143625 Mg
    velocity 1.3908139339197474 -0.6065199985987979 3.5315358536121395
atom_frac 0.1257242452133217 0.8698594252745030 0.6331499527106960 Mg
    velocity -4.1009538719481773 -7.8994858964191303 -5.4090035442623687
atom_frac 0.3737005769498364 0.8788515246977385 0.6270578748781808 Mg
    velocity 0.2955892179686430 -2.3979199489717984 0.2083994140609907
atom_frac 0.6215521875823190 0.8790696619422547 0.6245054008106814 Mg
    velocity -0.5549290689349068 0.7124821251582055 0.0691450847500350
atom_frac 0.8781459289940613 0.8675465073109213 0.6279786737252042 Mg
    velocity -5.6502267777393431 3.0426142282100495 -3.3809679196315199
atom_frac 0.1344719589918058 0.1258354420360625 0.8669196274247961 Mg
    velocity 1.5956988647543484 -2.5281122597791161 2.0102901562635909
atom_frac 0.3814353957284584 0.1290952818004464 0.8648688640305363 Mg
    velocity 3.7018858681827433 3.4826123867735124 -1.4766405145203512
atom_frac 0.6326766499272661 0.1261697777188802 0.8686947948073229 Mg
    velocity 2.8667184366447467 -1.8646338477467956 -2.9664863592736879
atom_frac 0.8816003578983569 0.1252325394230411 0.8678057899855527 Mg
    velocity -1.6909625430063031 4.2730600486849983 1.6884395887587811
atom_frac 0.1200073059431429 0.3762710237673489 0.8788851983215887 Mg
    velocity 2.0695921670339295 2.9114400646094767 2.7887384434410580
atom_frac 0.3706887799739073 0.3664605667487733 0.8908098013778496 Mg
    velocity 4.9851811473310343 -5.7824037653452907 -0.2417578977999196
atom_frac 0.6243455599597213 0.3724162861563851 0.8810695501170339 Mg
    velocity 3.8819982139696081 -4.0426766910070135 2.1444437474183848
atom_frac 0.8718774768180827 0.3783735421218553 0.8737544069382343 Mg
    velocity -2.8216107045080565 0.4732731990801723 1.0510584417171345
atom_frac 0.1240931619262054 0.6194250424545614 0.8805841261305835 Mg
    velocity -3.3348634619493231 1.0146590995915057 -0.8693469766731418
atom_frac 0.3766932710522400 0.6293667174820472 0.8707135219002489 Mg
    velocity -3.8511040075498033 -2.1682943232922764 1.7842673438246088
atom_frac 0.6245857578983098 0.6268057094329115 0.8695680509633874 Mg
    velocity -1.3176331154209928 0.1188479918078547 -0.1600889006430256
atom_frac 0.8745738167454404 0.6247320982496434 0.8736210951229950 Mg
    velocity 2.5433430243900448 3.6254708150036268 -1.2743766978421536
atom_frac 0.1236286460646216 0.8742458567584225 0.8737727860187967 Mg
    velocity -1.3264991125897321 -3.4477185447305199 -0.0208194090512612
atom_frac 0.3746420601255826 0.8739828485980682 0.8761431889819599 Mg
    velocity -1.4437508091725515 0.7112415373382361 -4.1286878671093703
atom_frac 0.6270236778387555 0.8705451814115595 0.8747623649655633 Mg
    velocity -7.6781634733150605 1.2091306272835081 1.0927046012323050
atom_frac 0.8708747885174725 0.8743861486105022 0.8747693411122288 Mg
    velocity -2.7129811113214535 -0.9917342617459060 3.6905326612429969
atom_frac 0.1912657670415860 0.1789632704524112 0.1810410614073502 N
    velocity 0.3262216802262813 -4.6979826776780715 9.3543018652032561
atom_frac 0.4380471794781547 0.1827001021254426 0.1830747824573752 N
    velocity 1.0593010323681262 -0.7065340617990501 -0.8902604526420582
atom_frac 0.6871144378921724 0.1869852528801353 0.1796559332418749 N
    velocity -7.4278409129519689 1.4832135939799449 3.0563667808486317
atom_frac 0.9318824230850744 0.1823674690741579 0.1881333649004581 N
    velocity -5.4655967556820553 4.0296006129233541 -5.8991527017472958
atom_frac 0.1918312226978741 0.4266546460397586 0.1848290439361483 N
    velocity -2.8123026260993313 -4.9578411113088690 -4.9295854382564812
atom_frac 0.4314493994155753 0.4365967846217196 0.1855705307280767 N
    velocity 1.6661184343902546 -2.4991137081008921 -0.7872208760776136
atom_frac 0.6856723625844445 0.4365806100238887 0.1789748177832584 N
    velocity -1.8736593845437792 8.6328015514082761 2.1399335299419469
atom_frac 0.9323229513248461 0.4341178000363771 0.1862463548335161 N
    velocity 0.5338629606524457 4.3395709816505770 -8.1899725571426778
atom_frac 0.1850423489106844 0.6848539869833430 0.1812880677274251 N
    velocity 0.5866272234614414 -0.4327306591155730 1.6808989952661049
atom_frac 0.4410336684998878 0.6796274498364249 0.1779571138424066 N
    velocity -3.3212921788980574 -0.2462063967601907 0.1480512664919884
atom_frac 0.6862663321119049 0.6840431884153771 0.1824002444839103 N
    velocity 4.6677550390328308 -1.9717669882829529 -9.0109329791747346
atom_frac 0.9268063404004729 0.6800669365486058 0.1947887120429328 N
    velocity 1.0451493919282160 -3.1191344149735882 1.3257305585180978
atom_frac 0.1804903286868086 0.9307735115774148 0.1931692117024036 N
    velocity 6.8294265307457493 -8.7027722282003346 -6.9263860969481010
atom_frac 0.4321827492252298 0.9308006774201840 0.1871471249286348 N
    velocity 0.1758212821677220 -5.2299888633701928 -3.6886377015770928
atom_frac 0.6906909606489149 0.9285330143538024 0.1820445614086461 N
    velocity 0.9083611067672640 2.3164977043316886 -1.8466943806555673
atom_frac 0.9353537375774695 0.9414571235947993 0.1782328716420703 N
    velocity -3.8077962027920322 -2.9553482369211328 -2.9536675508921086
atom_frac 0.1909279726836404 0.1793383592868701 0.4311332461246852 N
    velocity 2.5471909150235090 2.0578478823763682 4.2769752237700009
atom_frac 0.4390377853461556 0.1897130770608410 0.4271081689629461 N
    velocity -2.4174202712482225 4.4925753812535145 -5.3528399722942588
atom_frac 0.6874474556919536 0.1904562299539569 0.4265308709922125 N
    velocity -3.4322505063555533 5.9581479102526140 -3.1106989622124619
atom_frac 0.9355820995594112 0.1797747167324810 0.4352590632426477 N
    velocity -2.0379574072040190 4.3547220932972994 6.5572099808577402
atom_frac 0.1794383218598333 0.4350321213532551 0.4381470417460869 N
    velocity -8.1986261536461456 -1.1814522752271770 0.1109277267266735
atom_frac 0.4392607021751132 0.4365523318302349 0.4243412931724155 N
    velocity 4.7043726570529447 -0.3142383400072906 4.0948359973721118
atom_frac 0.6916235367336010 0.4374781740895143 0.4236176928833860 N
    velocity 0.3272454537117412 3.9517302953071805 7.6823857989505511
atom_frac 0.9308205160618288 0.4308905428729757 0.4375214670338621 N
    velocity 2.1296416095373045 7.6169456314573400 3.1872384328665224
atom_frac 0.1859297231419194 0.6878189374470111 0.4308648485317487 N
    velocity 0.9152462980506246 -0.2782634066840054 -1.3604039804671120
atom_frac 0.4347241063239527 0.6758119640743937 0.4427856622922623 N
    velocity 0.6258645274215444 6.9588249704131497 6.1372169788213649
atom_frac 0.6780569152825890 0.6859185281977769 0.4382267079608494 N
    velocity 6.5414272997396719 -0.0184095547832665 3.3213177754234033
atom_frac 0.9313402720963064 0.6890295909868767 0.4331074981106381 N
    velocity -6.0941776097659979 -4.7375388622306431 3.7595933621320690
atom_frac 0.1796881351937883 0.9404958538357353 0.4327078965164897 N
    velocity 5.5664582114648669 -0.1227784993144395 2.4686567148144416
atom_frac 0.4341783332369734 0.9341263346325404 0.4360160187836188 N
    velocity -0.8643923890004239 -8.7700512191591891 1.3422522923092322
atom_frac 0.6844554024755912 0.9376507584157423 0.4278477177600576 N
    velocity 5.9591326168537533 -7.6825164771647119 -5.0258077253299698
atom_frac 0.9342684413999273 0.9286346802419687 0.4399782504395141 N
    velocity 3.4884163723924906 -2.4985653377708510 2.2110815539940281
atom_frac 0.1833734526534645 0.1830800363743118 0.6843544157675697 N
    velocity -0.3410848348345915 -3.4524811595540323 -4.2652065795451630
atom_frac 0.4335128355647127 0.1904779137393241 0.6818761700060202 N
    velocity -6.0607153356477648 8.9565845661130581 -8.6817358291008873
atom_frac 0.6850073042833669 0.1838544292724125 0.6843667487984502 N
    velocity 3.1104148449021705 7.4718151623848899 3.3164338941888261
atom_frac 0.9369409760151799 0.1783243004657803 0.6870064436983819 N
    velocity 0.0121517296373857 1.3812862717156447 -4.6203584296317022
atom_frac 0.1824137059384973 0.4370962141118617 0.6836307140196746 N
    velocity -0.9699110584041163 4.3098225260727858 2.1311185329878444
atom_frac 0.4311891593150162 0.4327008104305509 0.6887730101529366 N
    velocity -5.9133745404773084 -1.1009453156460514 0.0194947844211242
atom_frac 0.6831261028080838 0.4323270878018791 0.6918720339780280 N
    velocity -0.0862520767867707 -1.0826072032954779 -4.5108970989478099
atom_frac 0.9341546354430038 0.4391429494042405 0.6824208949832511 N
    velocity 1.8862908155989628 2.5471896135455170 4.2393710899069159
atom_frac 0.1794209827352998 0.6839333626727492 0.6888241563236973 N
    velocity 4.2086225370621833 3.5710391605154159 -2.2818243606456532
atom_frac 0.4344541009578102 0.6790265004148570 0.6934145605237555 N
    velocity -4.3170970534591007 3.8405531295167399 -0.2381479489885486
atom_frac 0.6818109510365402 0.6912849543173863 0.6793285246855857 N
    velocity 0.3602338728108234 -3.9978118964404019 -1.3830598912676009
atom_frac 0.9372972803499873 0.6780045077870943 0.6836879870721271 N
    velocity 2.5262803488794248 -0.2289387815693343 -3.6438902720584085
atom_frac 0.1838631491918179 0.9345965054514648 0.6865919335966919 N
    velocity 6.8709058789769513 1.5708564345858680 4.8497553281537575
atom_frac 0.4363313124803440 0.9371219654805604 0.6804997584314778 N
    velocity 1.2311410470596362 -3.5614152881435865 -1.2477914553787166
atom_frac 0.6875349458809008 0.9265838063678888 0.6841835827439481 N
    velocity -6.8641455446310271 2.0007674489750320 -2.0680755915771032
atom_frac 0.9343534598625608 0.9345991141772783 0.6831259351860800 N
    velocity 2.9328818333642959 3.3854091374194737 -10.2971183678665739
atom_frac 0.1904046225852036 0.1786798238844354 0.9351994171179904 N
    velocity 0.9024678342380877 -5.0324597717676003 0.6048846422040101
atom_frac 0.4389519261578325 0.1801394427118517 0.9329740087798546 N
    velocity 1.2843896121455363 -4.4955912129439239 0.8280211718360094
atom_frac 0.6902883626772238 0.1742253442145610 0.9405257885504112 N
    velocity 2.2099486235038830 1.4805402906021352 2.5972273295555910
atom_frac 0.9325893478153199 0.1890325412156960 0.9326403131489315 N
    velocity -1.9411459850925181 1.2880702892195970 -0.9896926702479583
atom_frac 0.1821823822648336 0.4332483340319431 0.9350767487958321 N
    velocity 1.2936580341385446 -1.9041753719787164 -6.5197795679465500
atom_frac 0.4378647330306699 0.4340918578888056 0.9330026776658762 N
    velocity 1.7678406042759982 -1.1998425064727973 1.0651618737173130
atom_frac 0.6880153007690557 0.4379258051199039 0.9244725040902543 N
    velocity 1.2193716539519732 -1.0250632761132077 -4.7944354751021256
atom_frac 0.9424879376022068 0.4285158110384137 0.9299828692434868 N
    velocity -0.7942519135815204 2.5287660450681337 -2.7522113066839462
atom_frac 0.1758068661463777 0.6799769573892490 0.9476192650532577 N
    velocity 0.7196914316185032 -1.4792786952188526 5.3009818470140306
atom_frac 0.4355987705730666 0.6843046020868485 0.9363526695752923 N
    velocity -6.0098718639682014 9.0633832626189452 4.1586368315751878
atom_frac 0.6883796932396253 0.6850452709861583 0.9259524109007623 N
    velocity 6.8495128854445548 2.2342321448474487 0.8138264920869227
atom_frac 0.9325668925606220 0.6878698960567134 0.9300107839016110 N
    velocity -3.7523719351754536 5.6252215753350603 -1.8212984065286351
atom_frac 0.1817376142751325 0.9462396469536762 0.9218968748795145 N
    velocity -12.6324800220681723 2.6502794253576440 5.4461085327367345
atom_frac 0.4416217250147095 0.9273207663609662 0.9360373096164342 N
    velocity 2.1656952712831785 3.8136385049823591 -4.1709649508543576
atom_frac 0.6787395359224428 0.9377000195221115 0.9374851151174800 N
    velocity -3.2767721973642816 -6.0404951046661131 0.8117696981903446
atom_frac 0.9372960053559344 0.9332548248951981 0.9309496616337528 N
    velocity -10.1378910662389359 -6.8676668460901364 0.7087004439290776
atom_frac 0.0700724723141865 0.0516806468775281 0.0755016905188424 N
    velocity -5.1512200954000482 2.4850631047643281 -4.0930612462245426
atom_frac 0.3138569574576591 0.0681374701675191 0.0647964181283511 N
    velocity 3.0549846079385197 3.5184470759546742 4.3889752362003094
atom_frac 0.5636449653597561 0.0602204223257849 0.0732928927379527 N
    velocity -3.9985043819310038 2.0393272630253581 -3.9752779018552160
atom_frac 0.8186907729121439 0.0712618080460309 0.0585584228068911 N
    velocity -1.4610662902188891 -3.4193766490314896 1.1838679080662800
atom_frac 0.0658033924624909 0.3160948110480264 0.0661829375484785 N
    velocity -2.4406364317725209 -1.9632201654541015 5.1784872624946621
atom_frac 0.3146361021427417 0.3052727778658793 0.0772561725515820 N
    velocity -3.2293558789848209 5.9942012792633959 3.5956083577508124
atom_frac 0.5664417910446897 0.3170153705499991 0.0658525956787125 N
    velocity 6.5132806074598326 6.6183669092999029 9.6332208448013468
atom_frac 0.8172701228926206 0.3162293593085784 0.0639522803828111 N
    velocity -0.5790008481804583 -4.3442841177534257 1.9983991503642351
atom_frac 0.0575860645744203 0.5693564510680447 0.0706286179101408 N
    velocity -3.0925579935218757 -3.3739241812433720 -2.8441658703645207
atom_frac 0.3130588664466043 0.5678187690383852 0.0662116058924095 N
    velocity 4.0011683627680927 8.4789492671884776 2.2871492524966834
atom_frac 0.5704104832623965 0.5657954200685694 0.0615629478476697 N
    velocity 5.7685702045202367 1.9356710381974558 -4.5086124266853300
atom_frac 0.8154187605289349 0.5676980214573412 0.0632533627596508 N
    velocity 3.1032015478829473 5.7368527448560256 -0.8206832030473034
atom_frac 0.0601405897014814 0.8266499335102468 0.0578137231537745 N
    velocity 6.0615935275315627 -0.0505092755653005 1.3202555326907037
atom_frac 0.3208233556811517 0.8146695083256534 0.0581074445191684 N
    velocity 1.2246293993608077 -0.0390096026482966 6.2146661707488056
atom_frac 0.5705652978106692 0.8098376191550796 0.0680180277380575 N
    velocity -3.0081538509785748 -8.3395935823794165 2.4218478401286387
atom_frac 0.8127326349386157 0.8183045377200405 0.0632011227471809 N
    velocity 1.9222840953115761 0.0193055265831345 1.7318337693062698
atom_frac 0.0657649234733734 0.0629432556901569 0.3167571049650953 N
    velocity 7.7734350712809492 1.5756397336224757 1.6527235342512550
atom_frac 0.3192859107108578 0.0633856485814384 0.3157223312273008 N
    velocity -0.7466058442564204 -4.9701467740958902 1.7790388075577970
atom_frac 0.5560099644495978 0.0752484016014136 0.3131636273537894 N
    velocity 1.8107690381037305 2.2192071935848015 0.6264557923509481
atom_frac 0.8139192890069971 0.0736202114754450 0.3115267473575059 N
    velocity 5.2782502689078310 1.0324834819444133 4.9029356503668442
atom_frac 0.0660045397550658 0.3151851631940973 0.3143162530802794 N
    velocity 3.4509801400314752 1.1626347028817574 -3.7762871778795608
atom_frac 0.3089404157594411 0.3191908276519635 0.3201058396681162 N
    velocity 4.1179762755030858 5.2613133479179099 1.7602008003723875
atom_frac 0.5685002441460093 0.3173787854782918 0.3121100554966896 N
    velocity -2.9877253944416524 -2.6486419564926797 -3.8289824574293103
atom_frac 0.8151800735901268 0.3079344278575014 0.3217403294327966 N
    velocity 2.9901272620409278 0.0401957250095985 -3.4306057646297372
atom_frac 0.0625154790556999 0.5640280635416869 0.3179686900271170 N
    velocity -3.3821324350768198 -1.9180717284746918 0.6209508916752897
atom_frac 0.3195789970078207 0.5734496699809626 0.3041152134273928 N
    velocity -4.2867963662559028 0.3913984252432559 4.8661994729560343
atom_frac 0.5670542813345478 0.5685609685006334 0.3145797185485060 N
    velocity -1.7059090538631949 -3.6135014935882279 2.0939404044552510
atom_frac 0.8070276973254251 0.5680108668723370 0.3231240180758992 N
    velocity -3.6991970919101163 1.6099784298314832 2.0228395214024846
atom_frac 0.0642301415255942 0.8161090332272433 0.3133930698201498 N
    velocity -6.5074527356491014 -4.7531229057933526 -1.7246698153863176
atom_frac 0.3229120254757577 0.8123490930771436 0.3154311678339656 N
    velocity -0.0434975114375031 2.3813640028458902 0.2323852313698823
atom_frac 0.5667476919342942 0.8082548826376769 0.3242665164849730 N
    velocity 4.9598085262208871 -0.8706231698850712 -7.5480902417953191
atom_frac 0.8151972307236184 0.8149614365155716 0.3154457854415998 N
    velocity -0.5118419648415680 -3.2234996874700936 -10.1189666283394732
atom_frac 0.0669231578687210 0.0641460946190248 0.5653097737311186 N
    velocity -1.3031186871184675 -6.5184209950795511 0.8376060263133750
atom_frac 0.3202888871944810 0.0546321557992470 0.5697051136672796 N
    velocity -2.5278861296635036 4.8911729995182185 -2.2250266078757592
atom_frac 0.5609609729580388 0.0701795154640754 0.5665939220229308 N
    velocity 4.9177288812956297 -4.0835260623251148 -7.4468193305056447
atom_frac 0.8106521473833889 0.0662363766857483 0.5675307881362586 N
    velocity -0.0296047398326852 8.0872734800345611 0.1634723104044760
atom_frac 0.0597766107105711 0.3143691714887281 0.5686759972272816 N
    velocity -3.0774584045891067 2.8838419285856247 -5.6815821642722826
atom_frac 0.3187151883765957 0.3200166148205492 0.5624374418922042 N
    velocity 0.0533355339830900 -2.5938431873454602 -0.7601194151056644
atom_frac 0.5644609615277971 0.3164060465188503 0.5622312387420983 N
    velocity -4.6303531037339916 -4.3066629901905715 -1.3454520909983225
atom_frac 0.8132218663180609 0.3180401917126585 0.5674006669736278 N
    velocity -0.8970462391075332 0.8695009141155380 -7.0435007714955020
atom_frac 0.0722307954946441 0.5732300221802967 0.5536629647813222 N
    velocity 3.7948666968910931 1.0284862680399496 14.4662037914990602
atom_frac 0.3177996765477020 0.5651092362807190 0.5645275901278972 N
    velocity -3.9255203866382500 -3.5419828911087876 -3.7644560871940116
atom_frac 0.5504409104969509 0.5681498728095339 0.5782601020573971 N
    velocity 6.8865249821268479 4.5207652427195804 -3.6075648768973041
atom_frac 0.8170196732163909 0.5659882774475440 0.5648724276653289 N
    velocity 0.6231320982864266 -6.0305004183220365 -2.6597356447382658
atom_frac 0.0650832785641721 0.8162296874372481 0.5633945046632239 N
    velocity -0.1900751217817326 8.3621141059859543 4.2790647792388814
atom_frac 0.3173372084766266 0.8172921785619768 0.5653911421392281 N
    velocity 1.1549867356695991 -0.3885310290618864 0.1590973198215604
atom_frac 0.5595890756664815 0.8200643420456949 0.5663595172117868 N
    velocity -0.4991726249609716 -2.2063047443532202 -0.2544301732424686
atom_frac 0.8123084900102149 0.8156657291032795 0.5643736266920186 N
    velocity 0.4027623886824600 -2.5702785012087639 7.1281809732726726
atom_frac 0.0679186443494929 0.0650660303279731 0.8134016646721149 N
    velocity -2.9897430768907980 0.3545180666868292 -2.5143243233496073
atom_frac 0.3304687104905610 0.0589565539620185 0.8143496018289870 N
    velocity -3.1010063714241145 -2.5463967565505574 -1.3336722069934535
atom_frac 0.5676529020559892 0.0618070960957593 0.8164454386524063 N
    velocity 8.5854456714337157 -1.4587978897365554 -2.2118526643023921
atom_frac 0.8126189413339876 0.0616938590745682 0.8197937309510077 N
    velocity -3.4356781253050697 -6.6837441745563293 3.2032029932610833
atom_frac 0.0690775770767344 0.3109645041158387 0.8144526542180188 N
    velocity -0.7928733117159489 -1.1971818223597774 1.3865943625230197
atom_frac 0.3154842214689739 0.3164697875471965 0.8117915449688438 N
    velocity -0.7387578907723911 -3.9399975827088012 1.5610999422584599
atom_frac 0.5698933014397637 0.3091302595758618 0.8207802896235608 N
    velocity 4.4590460328167465 -3.9720740388311779 -2.3531628106824596
atom_frac 0.8165255333130133 0.3143603818686653 0.8151228579760933 N
    velocity 4.8562057938518217 -4.7077062696954339 1.5875065154674692
atom_frac 0.0562166107834201 0.5694376682538976 0.8184861209654712 N
    velocity -2.1702696809674786 5.7131120837287677 -0.2752706500384810
atom_frac 0.3088624515078847 0.5663311821708864 0.8268295304441000 N
    velocity 3.6705958259900497 -8.4910570834435166 4.5625645023055199
atom_frac 0.5619639137730971 0.5688525360003941 0.8164287455662356 N
    velocity -3.4829270752009029 -5.1140302236035140 6.8422074013972054
atom_frac 0.8201264464627535 0.5640677867117698 0.8105052931895904 N
    velocity -0.3718985904485238 -6.2445642610565431 7.8617613743132395
atom_frac 0.0651365821729747 0.8130256982352180 0.8190902899743920 N
    velocity 8.5674469709709413 6.5994597888977040 -2.3632648771939064
atom_frac 0.3189818813908532 0.8131285680262157 0.8169759655575684 N
    velocity 2.3782669446122999 -0.8917773468813035 2.0275264665915453
atom_frac 0.5683757186874488 0.8173214550113514 0.8113955831796427 N
    velocity 5.7168601835272552 -5.8803920065507569 -7.9467289743399361
atom_frac 0.8126436215575989 0.8217029019189195 0.8143580615720177 N
    velocity -2.8597976893885484 1.7603260764297908 1.9545471940063996
atom_frac 0.0000911075048740 0.0025210520793713 -0.0012221626561311 Si
    velocity 0.1053731873190708 3.6499611067386950 4.7695527402554720
atom_frac 0.2600207569318817 -0.0052043327921725 -0.0037588234575259 Si
    velocity 5.1271012163673495 3.0358407437515660 1.8175041732340573
atom_frac 0.4987181625399817 -0.0001994758058610 -0.0014194467059102 Si
    velocity 6.8718683287022078 -2.8931771068222236 -3.2911439115404995
atom_frac 0.7545062524133499 -0.0075758693351605 0.0018630111996408 Si
    velocity 2.3150853186040736 -5.3082857029430928 -4.8219521514705024
atom_frac 0.0019943482076292 0.2452263517753395 0.0005546505800058 Si
    velocity -0.1549340402869520 -0.6570340219358144 3.4702051107413996
atom_frac 0.2507298439002891 0.2535701847937167 -0.0030776187102197 Si
    velocity -2.6082622836283065 6.0405652902430687 -6.2327658619391721
atom_frac 0.4997038496580338 0.2511185295038507 0.0005090416251424 Si
    velocity 4.4823431937802845 -4.9642611916317918 -3.1350604078235027
atom_frac 0.7451270025373971 0.2564949184318921 -0.0015631208560087 Si
    velocity -2.4344336257361010 -1.3557818228872363 1.0348162423686056
atom_frac -0.0060159869423101 0.5007432341174770 0.0008062686937918 Si
    velocity 5.6326431996182418 -4.3107704055525016 2.4903738217872333
atom_frac 0.2467386800454408 0.5020524847471274 0.0017725795147929 Si
    velocity -4.1757893254200997 0.0517163211842398 2.1315410866280100
atom_frac 0.4910050445717540 0.5079311249756763 -0.0010738494057180 Si
    velocity -1.3181348794775685 0.5542615292459703 -2.2109196313967936
atom_frac 0.7566679147602269 0.4996380954844915 -0.0059353434556172 Si
    velocity -0.8890107954534344 -2.9876529244084855 -0.4054404619585248
atom_frac -0.0097112965801637 0.7504452089083934 0.0086150955105668 Si
    velocity 1.3123692607087587 5.1115473931839830 0.4273876098447339
atom_frac 0.2474448217934150 0.7504431362630402 0.0002824793061337 Si
    velocity 1.5229761596326898 1.4186436536546740 4.2390984013382829
atom_frac 0.4959228999788591 0.7490671041918480 0.0021405224211288 Si
    velocity -0.9470453696643395 2.4334446947021986 1.0745621247126753
atom_frac 0.7495301446401178 0.7495641607154492 0.0002083211080927 Si
    velocity 4.9396846696664092 0.1470545043313446 2.9927975358239105
atom_frac -0.0032989772574892 0.0043527078997294 0.2485052644801344 Si
    velocity 1.0986641505037331 2.3059792884209926 0.9954891857980593
atom_frac 0.2523493224033418 -0.0027748408071114 0.2515896981552337 Si